(set-logic ALL)
(declare-fun var0 () String)
(assert (str.in_re var0 (re.++ (re.+ (re.+ (str.to_re "0"))) (re.++ (re.+ (re.+ (str.to_re "111"))) (re.++ (re.+ (re.* (str.to_re "222"))) (re.++ (re.* (re.* (str.to_re "33"))) (re.++ (re.* (re.* (str.to_re "444"))) (re.++ (re.union (re.* (str.to_re "555")) (re.* (str.to_re "66"))) (re.++ (re.union (re.+ (str.to_re "77")) (re.+ (str.to_re "88"))) (re.++ (re.+ (re.union (str.to_re "999") (str.to_re "aaa"))) (re.++ (re.* (re.+ (str.to_re "bbb"))) (re.++ (re.* (re.+ (str.to_re "cc"))) (re.++ (re.union (re.union (str.to_re "d") (str.to_re "ee")) (re.union (str.to_re "fff") (str.to_re "ggg"))) (re.++ (re.+ (re.* (str.to_re "h"))) (re.++ (re.+ (re.+ (str.to_re "iii"))) (re.++ (re.+ (re.+ (str.to_re "jjj"))) (re.++ (re.* (re.union (str.to_re "k") (str.to_re "lll"))) (re.++ (re.* (re.union (str.to_re "mmm") (str.to_re "nn"))) (re.++ (re.union (re.+ (str.to_re "o")) (re.+ (str.to_re "p"))) (re.++ (re.+ (re.union (str.to_re "q") (str.to_re "rrr"))) (re.++ (re.* (re.union (str.to_re "ss") (str.to_re "t"))) (re.++ (re.+ (re.+ (str.to_re "uu"))) (re.++ (re.* (re.+ (str.to_re "v"))) (re.++ (re.* (re.+ (str.to_re "w"))) (re.++ (re.* (re.+ (str.to_re "xx"))) (re.++ (re.* (re.+ (str.to_re "yy"))) (re.++ (re.* (re.* (str.to_re "zzz"))) (re.++ (re.* (re.union (str.to_re "AAA") (str.to_re "BB"))) (re.++ (re.union (re.+ (str.to_re "C")) (re.+ (str.to_re "DD"))) (re.++ (re.union (re.+ (str.to_re "EEE")) (re.+ (str.to_re "F"))) (re.++ (re.union (re.union (str.to_re "GGG") (str.to_re "HH")) (re.union (str.to_re "II") (str.to_re "J"))) (re.++ (re.+ (re.* (str.to_re "K"))) (re.++ (re.* (re.* (str.to_re "LL"))) (re.++ (re.+ (re.+ (str.to_re "M"))) (re.++ (re.* (re.union (str.to_re "NNN") (str.to_re "OO"))) (re.++ (re.+ (re.* (str.to_re "PP"))) (re.++ (re.* (re.union (str.to_re "Q") (str.to_re "RR"))) (re.++ (re.* (re.union (str.to_re "S") (str.to_re "T"))) (re.++ (re.union (re.+ (str.to_re "UUU")) (re.+ (str.to_re "VV"))) (re.++ (re.* (re.* (str.to_re "W"))) (re.++ (re.union (re.+ (str.to_re "X")) (re.+ (str.to_re "Y"))) (re.++ (re.* (re.+ (str.to_re "Z"))) (re.++ (re.+ (re.union (str.to_re "!!!") (str.to_re """"))) (re.++ (re.+ (re.union (str.to_re "##") (str.to_re "$"))) (re.++ (re.* (re.+ (str.to_re "%%"))) (re.++ (re.* (re.* (str.to_re "&&"))) (re.++ (re.* (re.union (str.to_re "'") (str.to_re "((("))) (re.++ (re.+ (re.union (str.to_re ")))") (str.to_re "**"))) (re.++ (re.+ (re.union (str.to_re "+++") (str.to_re ",,"))) (re.++ (re.* (re.* (str.to_re "-"))) (re.++ (re.+ (re.union (str.to_re ".") (str.to_re "///"))) (re.++ (re.+ (re.* (str.to_re ":::"))) (re.++ (re.+ (re.* (str.to_re ";"))) (re.++ (re.+ (re.union (str.to_re "<<<") (str.to_re "=="))) (re.++ (re.+ (re.* (str.to_re ">>"))) (re.++ (re.* (re.+ (str.to_re "?"))) (re.++ (re.union (re.union (str.to_re "@") (str.to_re "[")) (re.union (str.to_re "\\\\\\") (str.to_re "]]]"))) (re.++ (re.* (re.union (str.to_re "^^^") (str.to_re "_"))) (re.++ (re.union (re.* (str.to_re "`")) (re.* (str.to_re "{{"))) (re.++ (re.union (re.union (str.to_re "||") (str.to_re "}")) (re.union (str.to_re "~~") (str.to_re "00"))) (re.++ (re.+ (re.* (str.to_re "11"))) (re.++ (re.* (re.+ (str.to_re "22"))) (re.++ (re.+ (re.+ (str.to_re "333"))) (re.++ (re.* (re.+ (str.to_re "44"))) (re.++ (re.union (re.+ (str.to_re "55")) (re.+ (str.to_re "666"))) (re.++ (re.* (re.* (str.to_re "7"))) (re.++ (re.* (re.+ (str.to_re "8"))) (re.++ (re.* (re.+ (str.to_re "999"))) (re.++ (re.+ (re.* (str.to_re "aaa"))) (re.++ (re.+ (re.union (str.to_re "b") (str.to_re "c"))) (re.++ (re.+ (re.union (str.to_re "ddd") (str.to_re "ee"))) (re.++ (re.+ (re.* (str.to_re "f"))) (re.++ (re.union (re.union (str.to_re "gg") (str.to_re "hhh")) (re.union (str.to_re "iii") (str.to_re "j"))) (re.++ (re.+ (re.+ (str.to_re "k"))) (re.++ (re.* (re.* (str.to_re "l"))) (re.++ (re.* (re.* (str.to_re "mmm"))) (re.++ (re.+ (re.+ (str.to_re "nn"))) (re.++ (re.* (re.+ (str.to_re "o"))) (re.++ (re.union (re.+ (str.to_re "p")) (re.+ (str.to_re "qq"))) (re.++ (re.union (re.* (str.to_re "rrr")) (re.* (str.to_re "sss"))) (re.++ (re.+ (re.+ (str.to_re "ttt"))) (re.++ (re.* (re.* (str.to_re "uu"))) (re.++ (re.* (re.* (str.to_re "vvv"))) (re.++ (re.* (re.union (str.to_re "www") (str.to_re "x"))) (re.++ (re.union (re.* (str.to_re "y")) (re.* (str.to_re "z"))) (re.++ (re.union (re.+ (str.to_re "A")) (re.+ (str.to_re "BBB"))) (re.++ (re.+ (re.+ (str.to_re "C"))) (re.++ (re.+ (re.* (str.to_re "DDD"))) (re.++ (re.+ (re.+ (str.to_re "E"))) (re.++ (re.+ (re.* (str.to_re "F"))) (re.++ (re.union (re.* (str.to_re "G")) (re.* (str.to_re "H"))) (re.++ (re.* (re.* (str.to_re "III"))) (re.++ (re.+ (re.* (str.to_re "JJ"))) (re.union (re.union (str.to_re "KKK") (str.to_re "LL")) (re.union (str.to_re "MMM") (str.to_re "NN"))))))))))))))))))))))))))))))))))))))))))))))))))))))))))))))))))))))))))))))))))))))))))))))))
(check-sat)